c SAT problem
p wcnf 215 816
1 60 -3150 0
1 -60 3120 0
1 60 -3165 0
1 -60 3135 0
1 -90 -105 0
1 90 3165 0
1 -105 -3120 0
1 -105 3090 0
1 -105 3060 0
1 3120 196 0
1 3120 135 0
1 3120 -3121 0
1 3120 -90 0
1 -3135 3136 0
1 3135 -135 0
1 -3135 -75 0
1 3135 181 0
1 -3135 90 0
1 3135 60 0
1 3150 196 0
1 3150 105 0
1 -3150 90 0
1 3165 -105 0
1 -3165 181 0
1 3165 151 0
1 -3165 -60 0
1 120 -3105 0
1 -120 3090 0
1 135 3120 0
1 -135 3090 0
1 135 120 0
1 150 -3060 0
1 150 -3135 0
1 165 3105 0
1 165 -3015 0
1 -165 3090 0
1 165 3000 0
1 -3060 3075 0
1 -3060 -180 0
1 -3060 3061 0
1 -3060 90 0
1 3075 -195 0
1 3075 -3076 0
1 -3075 -180 0
1 -3075 120 0
1 -3090 3105 0
1 -3090 135 0
1 3090 3091 0
1 3090 -181 0
1 -3105 -3106 0
1 3105 240 0
1 -3105 -3090 0
1 -3105 90 0
1 180 195 0
1 -180 3045 0
1 180 3060 0
1 -180 181 0
1 195 -196 0
1 -195 -3060 0
1 195 3000 0
1 210 -225 0
1 210 -3030 0
1 -225 -3045 0
1 -225 3060 0
1 -225 3030 0
1 3000 -225 0
1 3000 -195 0
1 -3000 -165 0
1 -3000 -300 0
1 -3000 150 0
1 3000 -315 0
1 -3015 -300 0
1 -3015 210 0
1 3015 315 0
1 -3030 195 0
1 3030 -3045 0
1 3045 3046 0
1 3045 -300 0
1 -3045 150 0
1 -3045 -3030 0
1 61 3330 0
1 61 76 0
1 -61 3345 0
1 76 77 0
1 91 -3330 0
1 91 -3300 0
1 91 3345 0
1 -91 -92 0
1 -106 -105 0
1 -106 -91 0
1 -3300 -136 0
1 3300 -3315 0
1 -3315 -3300 0
1 3315 -106 0
1 3315 -3316 0
1 3315 -182 0
1 -3330 3345 0
1 -3330 152 0
1 -3330 91 0
1 -3345 3330 0
1 -3345 -61 0
1 -121 136 0
1 121 3315 0
1 -121 3255 0
1 -121 120 0
1 121 122 0
1 -136 3270 0
1 -136 -3240 0
1 151 3210 0
1 151 -3255 0
1 166 3255 0
1 166 -3300 0
1 166 -3270 0
1 -166 3165 0
1 3240 166 0
1 3240 106 0
1 -3240 211 0
1 3240 -181 0
1 3240 -151 0
1 -3255 -136 0
1 -3255 106 0
1 -3255 241 0
1 3270 197 0
1 3270 106 0
1 3270 121 0
1 -3285 227 0
1 -3285 3270 0
1 -3285 182 0
1 3285 -151 0
1 3285 3286 0
1 3285 -121 0
1 -3285 -91 0
1 -181 -3180 0
1 181 -3135 0
1 196 -195 0
1 196 197 0
1 -196 -3240 0
1 -196 181 0
1 211 -3136 0
1 211 3105 0
1 -211 -3210 0
1 211 3180 0
1 211 3090 0
1 211 -3166 0
1 226 -227 0
1 226 3121 0
1 -226 -3090 0
1 -226 -211 0
1 -226 -3255 0
1 -226 3225 0
1 226 3195 0
1 -226 3166 0
1 3180 196 0
1 -3180 -166 0
1 -3180 -3181 0
1 -3180 -240 0
1 -3180 151 0
1 -3195 240 0
1 3195 3196 0
1 3210 226 0
1 -3210 166 0
1 3210 -271 0
1 -3210 -241 0
1 -3210 -286 0
1 3225 -211 0
1 -3225 -3226 0
1 240 3075 0
1 240 3180 0
1 240 241 0
1 -240 3166 0
1 -255 3136 0
1 255 3180 0
1 270 3076 0
1 -270 3180 0
1 270 3030 0
1 270 -3195 0
1 270 -3166 0
1 -285 3136 0
1 285 3106 0
1 -285 3076 0
1 -285 3151 0
1 285 286 0
1 3121 270 0
1 3121 3120 0
1 3121 211 0
1 -3121 376 0
1 -3121 -285 0
1 3136 226 0
1 -3136 -330 0
1 -3136 3135 0
1 3136 -315 0
1 3151 -3150 0
1 -3151 346 0
1 -3151 316 0
1 3166 -226 0
1 3166 301 0
1 -3166 3151 0
1 -3166 -240 0
1 3166 3165 0
1 -300 -3136 0
1 -300 3045 0
1 300 -3076 0
1 -300 3015 0
1 300 -301 0
1 300 3091 0
1 300 -3061 0
1 300 -3000 0
1 315 -3000 0
1 -315 316 0
1 -330 -3136 0
1 -330 -3106 0
1 330 3076 0
1 330 3046 0
1 330 -3016 0
1 -330 331 0
1 -330 -3091 0
1 330 3031 0
1 -345 3016 0
1 -345 -330 0
1 -345 -3091 0
1 -345 3061 0
1 345 3031 0
1 -3061 -3076 0
1 3061 -435 0
1 3061 375 0
1 3061 -345 0
1 -3061 -285 0
1 -3076 390 0
1 -3076 -330 0
1 3076 375 0
1 3076 315 0
1 3076 285 0
1 3091 -330 0
1 3091 -300 0
1 3091 270 0
1 3091 376 0
1 -3106 435 0
1 -3106 406 0
1 -3106 -315 0
1 -3106 -285 0
1 -375 3046 0
1 375 -360 0
1 390 391 0
1 -390 3016 0
1 390 -3061 0
1 390 -3001 0
1 -3001 390 0
1 3001 -360 0
1 3001 -3016 0
1 3001 495 0
1 3001 405 0
1 3001 -375 0
1 -3001 3000 0
1 3016 3015 0
1 -3016 330 0
1 -3031 -465 0
1 3046 3045 0
1 -3046 -390 0
1 3046 -330 0
1 -3046 495 0
1 -3046 -3031 0
1 -3046 -375 0
1 62 61 0
1 -77 -3495 0
1 92 3510 0
1 92 3450 0
1 -92 3420 0
1 107 3525 0
1 107 3495 0
1 -107 -106 0
1 107 -3480 0
1 107 -3450 0
1 -3480 167 0
1 3480 137 0
1 -3480 107 0
1 -3495 3496 0
1 -3495 77 0
1 -3495 122 0
1 3495 62 0
1 -3510 -107 0
1 3510 -77 0
1 3510 92 0
1 3525 3526 0
1 -3525 77 0
1 3525 -3510 0
1 3525 62 0
1 122 -3330 0
1 -122 -137 0
1 -122 3345 0
1 -122 121 0
1 -122 3450 0
1 -122 3420 0
1 137 -3465 0
1 137 3435 0
1 137 3345 0
1 -137 -3480 0
1 -152 3495 0
1 152 3435 0
1 -152 -3345 0
1 -152 3450 0
1 167 -3480 0
1 -167 -3375 0
1 -167 -152 0
1 -3420 257 0
1 3420 122 0
1 3420 3421 0
1 3435 257 0
1 -3435 -167 0
1 -3435 137 0
1 -3435 212 0
1 -3450 167 0
1 -3450 137 0
1 -3450 -242 0
1 -3450 -3451 0
1 -3465 -122 0
1 3465 -92 0
1 182 -3360 0
1 182 3300 0
1 182 -3420 0
1 -197 -3345 0
1 -197 -3315 0
1 197 -182 0
1 197 -3420 0
1 197 -3390 0
1 -212 3360 0
1 212 3270 0
1 212 3346 0
1 212 -3420 0
1 227 3270 0
1 227 -3435 0
1 -227 -3405 0
1 227 3346 0
1 227 212 0
1 -227 -3420 0
1 227 3390 0
1 -3360 271 0
1 -3360 -241 0
1 3360 182 0
1 -3375 227 0
1 3375 -3376 0
1 3375 241 0
1 -3375 -182 0
1 -3390 -227 0
1 3390 3391 0
1 -3390 -167 0
1 -3390 242 0
1 -3390 212 0
1 3390 -182 0
1 -3405 257 0
1 3405 197 0
1 3405 272 0
1 -3405 -287 0
1 241 -3331 0
1 241 3210 0
1 -241 3346 0
1 -241 -3255 0
1 256 257 0
1 -256 3240 0
1 256 -3255 0
1 -271 -3331 0
1 271 272 0
1 -271 3316 0
1 -286 -3331 0
1 286 -3301 0
1 -286 -3241 0
1 -286 -3286 0
1 286 3256 0
1 286 -3225 0
1 -3301 256 0
1 -3301 362 0
1 -3301 331 0
1 -3301 -301 0
1 3301 -271 0
1 -3301 -346 0
1 -3316 -362 0
1 3316 -331 0
1 3316 3315 0
1 -3316 -212 0
1 -3316 -3317 0
1 -3316 -346 0
1 3316 316 0
1 -3331 -227 0
1 3331 -377 0
1 -3346 227 0
1 -3346 3331 0
1 -3346 271 0
1 3346 -3347 0
1 3346 377 0
1 -3346 -347 0
1 301 3301 0
1 -301 3271 0
1 301 -3286 0
1 -301 -3195 0
1 -301 3166 0
1 316 3241 0
1 316 -3210 0
1 -331 3301 0
1 331 -332 0
1 331 3286 0
1 -331 -3256 0
1 331 346 0
1 -331 3166 0
1 -346 3211 0
1 346 -3181 0
1 -346 3196 0
1 -3241 361 0
1 3241 301 0
1 3241 -436 0
1 -3241 -346 0
1 -3241 -316 0
1 -3256 391 0
1 -3256 3255 0
1 -3256 3257 0
1 3256 316 0
1 -3271 392 0
1 3271 436 0
1 -3286 -3287 0
1 3286 -331 0
1 -3286 -407 0
1 3286 346 0
1 -361 3106 0
1 -361 3226 0
1 -361 3166 0
1 -376 3181 0
1 376 375 0
1 376 3226 0
1 -376 -3196 0
1 -376 3166 0
1 391 -3106 0
1 391 390 0
1 391 392 0
1 -391 406 0
1 -391 3196 0
1 406 3106 0
1 406 -3241 0
1 -406 -3211 0
1 -406 3181 0
1 -406 3122 0
1 -406 3091 0
1 -406 405 0
1 406 3256 0
1 406 3196 0
1 3181 -420 0
1 3181 -391 0
1 -3196 -481 0
1 3196 -420 0
1 3196 361 0
1 -3196 3195 0
1 3196 3197 0
1 3211 481 0
1 -3211 -3210 0
1 3211 466 0
1 -3226 -481 0
1 3226 -451 0
1 -3226 -391 0
1 3226 -3211 0
1 3226 466 0
1 3226 -376 0
1 -3226 -3225 0
1 -420 -421 0
1 -420 3181 0
1 -420 -3152 0
1 -420 -3167 0
1 435 -3137 0
1 -435 3106 0
1 -435 -3152 0
1 -435 3122 0
1 -435 3196 0
1 -450 -451 0
1 450 3077 0
1 -450 465 0
1 450 -3031 0
1 -450 3196 0
1 450 3167 0
1 465 3046 0
1 465 3196 0
1 -3122 -465 0
1 -3137 480 0
1 3137 510 0
1 3152 450 0
1 3152 496 0
1 -3152 541 0
1 -3167 -481 0
1 -3167 -450 0
1 3167 -391 0
1 3167 -496 0
1 -3167 465 0
1 -3167 -406 0
1 3167 3166 0
1 3167 511 0
1 480 3077 0
1 -480 3046 0
1 495 -3077 0
1 -495 3122 0
1 495 -3031 0
1 -510 3017 0
1 510 3092 0
1 -510 -3002 0
1 -525 3107 0
1 -525 -3047 0
1 -525 3017 0
1 -525 3062 0
1 -525 3032 0
1 -525 3002 0
1 3062 3077 0
1 -3062 585 0
1 3062 525 0
1 3062 495 0
1 -3062 -540 0
1 3077 3076 0
1 -3077 -585 0
1 -3092 586 0
1 -3092 556 0
1 -3092 495 0
1 -3092 -3091 0
1 3107 480 0
1 3107 -586 0
1 -3107 525 0
1 -3107 -541 0
1 540 -3077 0
1 -540 541 0
1 555 -3017 0
1 -555 556 0
1 -555 -3032 0
1 555 3002 0
1 -570 -585 0
1 -570 -3032 0
1 -570 3002 0
1 585 3002 0
1 585 -3077 0
1 585 -3032 0
1 3002 -585 0
1 3017 -585 0
1 -3032 555 0
1 3032 -3031 0
1 3032 570 0
1 -3032 540 0
1 -3047 -585 0
1 242 -257 0
1 242 3465 0
1 -242 -241 0
1 -242 -3481 0
1 242 -3450 0
1 -242 3390 0
1 -257 -256 0
1 257 3496 0
1 -257 242 0
1 257 3511 0
1 -257 -3481 0
1 257 -3450 0
1 257 -3420 0
1 272 -3436 0
1 -272 -287 0
1 287 3405 0
1 -287 3481 0
1 287 -3421 0
1 -287 -286 0
1 3481 257 0
1 -3496 257 0
1 -3496 -347 0
1 3496 -317 0
1 -3496 -287 0
1 -3511 -3526 0
1 3511 272 0
1 3511 -242 0
1 3511 -3510 0
1 -3511 -3512 0
1 3511 287 0
1 3526 257 0
1 -3526 -3525 0
1 -3526 287 0
1 -302 -3331 0
1 -302 301 0
1 302 -3346 0
1 -302 -3390 0
1 317 3436 0
1 -317 -302 0
1 317 3375 0
1 -317 3451 0
1 317 316 0
1 332 3331 0
1 -332 -3451 0
1 -332 3391 0
1 -347 -3466 0
1 347 3406 0
1 347 3421 0
1 -3421 -392 0
1 3421 -347 0
1 3421 -287 0
1 3436 392 0
1 -3436 -332 0
1 -3436 377 0
1 -3436 287 0
1 -3451 332 0
1 3451 302 0
1 -3451 287 0
1 -3466 422 0
1 3466 -332 0
1 3466 302 0
1 -3466 -3451 0
1 -362 -3331 0
1 362 361 0
1 362 3406 0
1 362 -3346 0
1 377 3331 0
1 377 3271 0
1 377 3376 0
1 -377 -3286 0
1 -377 376 0
1 377 -3421 0
1 392 -3271 0
1 -392 -391 0
1 392 3436 0
1 -392 -3406 0
1 392 3376 0
1 -392 -3347 0
1 -392 3317 0
1 -392 3391 0
1 -407 3361 0
1 407 3332 0
1 -407 -3302 0
1 -407 3347 0
1 -407 406 0
1 -407 3391 0
1 -3361 362 0
1 3361 -332 0
1 -3361 466 0
1 -3361 -436 0
1 3361 377 0
1 3376 421 0
1 3376 -332 0
1 -3391 -422 0
1 -3391 -392 0
1 -3391 -332 0
1 3391 407 0
1 -3391 -377 0
1 3406 -392 0
1 -3406 332 0
1 3406 -3407 0
1 -3406 -467 0
1 3406 437 0
1 -3406 407 0
1 3406 -347 0
1 421 3361 0
1 421 -422 0
1 -421 3302 0
1 421 -3211 0
1 421 -3317 0
1 421 3256 0
1 -421 3226 0
1 -436 -3361 0
1 436 3241 0
1 436 3317 0
1 -436 3226 0
1 451 450 0
1 451 3272 0
1 -451 3376 0
1 451 -3347 0
1 -451 -3257 0
1 466 -451 0
1 466 3272 0
1 466 -3242 0
1 -466 -3211 0
1 3302 557 0
1 -3302 -496 0
1 3302 436 0
1 -3302 -511 0
1 -3317 421 0
1 3317 392 0
1 3317 557 0
1 -3317 407 0
1 -3317 -511 0
1 -3332 451 0
1 3332 -421 0
1 -3332 -557 0
1 -3332 -466 0
1 -3332 436 0
1 -3347 -512 0
1 -3347 -451 0
1 -3347 -421 0
1 -3347 -466 0
1 -481 -480 0
1 481 -3242 0
1 -481 -3257 0
1 -496 -3211 0
1 -496 -497 0
1 -496 3287 0
1 -496 3196 0
1 -511 3182 0
1 -511 3152 0
1 -511 3317 0
1 -511 -3287 0
1 -511 -3257 0
1 511 -510 0
1 -511 -3167 0
1 -526 3242 0
1 526 3212 0
1 -526 -525 0
1 526 -527 0
1 -526 -3287 0
1 -526 3257 0
1 -526 3227 0
1 -3257 -496 0
1 3257 -466 0
1 -3272 -3271 0
1 -3287 3272 0
1 -3287 -557 0
1 -3287 511 0
1 -541 3107 0
1 541 -556 0
1 -556 3137 0
1 556 -3152 0
1 -556 3092 0
1 -571 586 0
1 -571 -3212 0
1 571 3227 0
1 -586 -585 0
1 586 587 0
1 586 571 0
1 -3182 -571 0
1 -3182 -541 0
1 3182 511 0
1 -3197 586 0
1 3212 3227 0
1 -3227 -3212 0
1 -3227 -571 0
1 -422 -3497 0
1 422 -3436 0
1 422 -3512 0
1 422 -3482 0
1 422 -3451 0
1 -422 3421 0
1 422 -3391 0
1 -437 -3527 0
1 437 -3451 0
1 437 3421 0
1 -437 -3391 0
1 452 451 0
1 -452 -3527 0
1 452 3437 0
1 -452 -3512 0
1 452 3422 0
1 452 -3391 0
1 -467 3497 0
1 -467 -3467 0
1 -467 -3437 0
1 467 -3406 0
1 467 3512 0
1 3482 -452 0
1 3482 -422 0
1 -3482 -437 0
1 3482 -3481 0
1 -3497 452 0
1 -3497 422 0
1 3497 -527 0
1 -3497 -437 0
1 -3512 452 0
1 3512 -422 0
1 -3512 -3527 0
1 -3527 452 0
1 3527 422 0
1 -3527 467 0
1 -482 -481 0
1 -482 -3332 0
1 -482 -3406 0
1 -482 3347 0
1 482 -3482 0
1 482 -3391 0
1 -497 482 0
1 497 -3497 0
1 497 -3376 0
1 -497 3422 0
1 497 3391 0
1 -512 3362 0
1 512 -527 0
1 527 3392 0
1 -527 -3347 0
1 -3422 512 0
1 -3422 -452 0
1 3422 527 0
1 3422 -497 0
1 -3437 -512 0
1 -3437 -482 0
1 -3437 -587 0
1 3437 -557 0
1 -3437 467 0
1 3452 -482 0
1 -3452 527 0
1 3452 497 0
1 -3467 527 0
1 3467 497 0
1 -3467 -3452 0
1 -557 3392 0
1 -557 3272 0
1 -557 -556 0
1 -557 -3377 0
1 -557 -3422 0
1 -572 -3392 0
1 572 -3377 0
1 -572 -3287 0
1 -587 3272 0
1 587 586 0
1 -587 3437 0
1 587 -3287 0
1 -587 -572 0
1 587 3422 0
1 -3362 -557 0
1 -3362 572 0
1 -3377 512 0
1 -3377 3362 0
1 3377 -587 0
1 3377 3376 0
1 -3392 572 0
1 -3407 512 0
1 3407 -3406 0
1 -3407 572 0
